c Created with the Wolfram Language : www.wolfram.com
c 
p edge 60 107
e 3 6
e 8 9
e 9 11
e 10 12
e 12 13
e 5 14
e 12 15
e 8 18
e 3 20
e 19 20
e 2 22
e 10 22
e 17 22
e 4 23
e 17 23
e 3 25
e 4 25
e 8 25
e 23 25
e 7 26
e 1 27
e 18 27
e 4 28
e 6 29
e 21 29
e 24 29
e 25 29
e 2 31
e 17 32
e 3 34
e 32 35
e 28 36
e 34 36
e 17 37
e 31 37
e 2 38
e 15 38
e 16 38
e 25 38
e 32 38
e 4 40
e 10 40
e 39 40
e 8 41
e 24 41
e 28 41
e 33 41
e 35 41
e 37 41
e 3 42
e 27 42
e 37 44
e 18 45
e 23 45
e 29 45
e 33 45
e 34 45
e 44 45
e 21 46
e 29 46
e 33 46
e 40 46
e 3 47
e 45 47
e 40 48
e 42 48
e 30 49
e 31 49
e 45 49
e 5 50
e 10 50
e 37 50
e 25 51
e 29 52
e 44 52
e 5 53
e 24 53
e 8 54
e 10 54
e 14 54
e 28 54
e 31 54
e 35 54
e 38 54
e 44 54
e 21 55
e 25 55
e 30 55
e 41 55
e 1 56
e 12 56
e 41 56
e 18 57
e 43 57
e 50 57
e 42 58
e 49 58
e 51 58
e 9 59
e 13 59
e 51 59
e 53 59
e 56 59
e 15 60
e 18 60
e 26 60
e 46 60
